# tests appending thermo output with custom variable to standard netcdf dump 
# (requires USER-NETCDF module compiled with NetCDF library)

include in.header

neighbor	0.3 bin
neigh_modify	delay 0 every 20 check no

# define some random per-atom variable
variable one equal 1
variable kinen atom 0.5*mass*(vx^2+vy^2+vz^2)

fix		1 all nve

# Step Temp E_pair E_mol TotEng Press CustomVariable
thermo_style custom step temp epair emol etotal press v_one
thermo 10

dump  1 all netcdf 10 netcdf_thermo_variable.nc id x y z vx vy vz fx fy fz

# append thermo output to NetCDF dump
dump_modify 1 thermo yes

run		100
